p cnf 29 75
a 2 15 0
e 1 3 4 5 6 7 8 9 10 11 12 13 14 16 17 18 19 20 21 22 23 24 25 26 27 28 29 0
-1 -2 -3 0
1 2 -3 0
-1 2 3 0
1 -2 3 0
-7 6 0
-7 -6 0
8 -5 0
8 -7 0
5 7 -8 0
8 -4 -9 0
-8 4 -9 0
8 4 9 0
-8 -4 9 0
-10 4 0
-10 -9 0
-4 9 10 0
11 -6 0
11 5 0
6 -5 -11 0
-10 11 -12 0
10 -11 -12 0
-10 -11 12 0
10 11 12 0
13 -9 0
13 6 0
9 -6 -13 0
-14 -12 0
-14 13 0
12 -13 14 0
15 -3 0
15 -14 0
3 14 -15 0
-18 16 0
-18 17 0
-16 -17 18 0
-19 16 0
-19 -9 0
-16 9 19 0
-21 17 0
-21 20 0
-17 -20 21 0
22 5 0
22 21 0
-5 -21 -22 0
-23 19 0
-23 22 0
-19 -22 23 0
-24 -18 0
-24 -23 0
18 23 24 0
25 15 0
25 -24 0
-15 24 -25 0
-26 16 0
-26 6 0
-16 -6 26 0
-27 17 0
-27 21 0
-17 -21 27 0
26 27 -28 0
-26 -27 -28 0
26 -27 28 0
-26 27 28 0
25 -28 -29 0
-25 28 -29 0
25 28 29 0
-25 -28 29 0
24 -20 -15 17 0
-9 27 10 -7 -22 16 -21 0
20 9 21 -17 18 15 0
9 -11 -28 22 -4 -1 -2 0
-11 2 25 -6 -19 -22 0
-24 16 27 29 -11 10 0
-27 23 -7 26 10 0
29 0
